c WMC file for PBN ISCAS/c1908_distill_ISCAS/c1908_miter written by probABC
p cnf 870 2358
85 29 -33 0
-85 -29 0
-85 33 0
86 -2 3 0
-86 2 0
-86 -3 0
87 2 -3 0
-87 -2 0
-87 3 0
88 86 87 0
-88 -86 0
-88 -87 0
89 -1 88 0
-89 1 0
-89 -88 0
90 1 -88 0
-90 -1 0
-90 88 0
91 89 90 0
-91 -89 0
-91 -90 0
92 6 7 0
-92 -6 0
-92 -7 0
93 -6 -7 0
-93 6 0
-93 7 0
94 92 93 0
-94 -92 0
-94 -93 0
95 -5 -94 0
-95 5 0
-95 94 0
96 5 94 0
-96 -5 0
-96 -94 0
97 95 96 0
-97 -95 0
-97 -96 0
98 -4 8 0
-98 4 0
-98 -8 0
99 4 -8 0
-99 -4 0
-99 8 0
100 98 99 0
-100 -98 0
-100 -99 0
101 -97 -100 0
-101 97 0
-101 100 0
102 97 100 0
-102 -97 0
-102 -100 0
103 101 102 0
-103 -101 0
-103 -102 0
104 -91 -103 0
-104 91 0
-104 103 0
105 91 103 0
-105 -91 0
-105 -103 0
106 104 105 0
-106 -104 0
-106 -105 0
107 85 -106 0
-107 -85 0
-107 106 0
108 -21 -29 0
-108 21 0
-108 29 0
109 -33 108 0
-109 33 0
-109 -108 0
110 -23 -24 0
-110 23 0
-110 24 0
111 -31 110 0
-111 31 0
-111 -110 0
112 -85 -111 0
-112 85 0
-112 111 0
113 -32 33 0
-113 32 0
-113 -33 0
114 110 -113 0
-114 -110 0
-114 113 0
115 112 114 0
-115 -112 0
-115 -114 0
116 -6 8 0
-116 6 0
-116 -8 0
117 6 -8 0
-117 -6 0
-117 8 0
118 116 117 0
-118 -116 0
-118 -117 0
119 -3 118 0
-119 3 0
-119 -118 0
120 3 -118 0
-120 -3 0
-120 118 0
121 119 120 0
-121 -119 0
-121 -120 0
122 -19 -23 0
-122 19 0
-122 23 0
123 33 -122 0
-123 -33 0
-123 122 0
124 10 15 0
-124 -10 0
-124 -15 0
125 -10 -15 0
-125 10 0
-125 15 0
126 124 125 0
-126 -124 0
-126 -125 0
127 -12 126 0
-127 12 0
-127 -126 0
128 12 -126 0
-128 -12 0
-128 126 0
129 127 128 0
-129 -127 0
-129 -128 0
130 -123 -129 0
-130 123 0
-130 129 0
131 123 129 0
-131 -123 0
-131 -129 0
132 130 131 0
-132 -130 0
-132 -131 0
133 -121 -132 0
-133 121 0
-133 132 0
134 121 132 0
-134 -121 0
-134 -132 0
135 133 134 0
-135 -133 0
-135 -134 0
136 31 135 0
-136 -31 0
-136 -135 0
137 -28 136 0
-137 28 0
-137 -136 0
138 28 -136 0
-138 -28 0
-138 136 0
139 137 138 0
-139 -137 0
-139 -138 0
140 5 8 0
-140 -5 0
-140 -8 0
141 -5 -8 0
-141 5 0
-141 8 0
142 140 141 0
-142 -140 0
-142 -141 0
143 -2 -142 0
-143 2 0
-143 142 0
144 2 142 0
-144 -2 0
-144 -142 0
145 143 144 0
-145 -143 0
-145 -144 0
146 -18 24 0
-146 18 0
-146 -24 0
147 33 -146 0
-147 -33 0
-147 146 0
148 9 14 0
-148 -9 0
-148 -14 0
149 -9 -14 0
-149 9 0
-149 14 0
150 148 149 0
-150 -148 0
-150 -149 0
151 -16 150 0
-151 16 0
-151 -150 0
152 16 -150 0
-152 -16 0
-152 150 0
153 151 152 0
-153 -151 0
-153 -152 0
154 -147 -153 0
-154 147 0
-154 153 0
155 147 153 0
-155 -147 0
-155 -153 0
156 154 155 0
-156 -154 0
-156 -155 0
157 -11 15 0
-157 11 0
-157 -15 0
158 11 -15 0
-158 -11 0
-158 15 0
159 157 158 0
-159 -157 0
-159 -158 0
160 -156 -159 0
-160 156 0
-160 159 0
161 156 159 0
-161 -156 0
-161 -159 0
162 160 161 0
-162 -160 0
-162 -161 0
163 -145 -162 0
-163 145 0
-163 162 0
164 145 162 0
-164 -145 0
-164 -162 0
165 163 164 0
-165 -163 0
-165 -164 0
166 31 -165 0
-166 -31 0
-166 165 0
167 -27 166 0
-167 27 0
-167 -166 0
168 27 -166 0
-168 -27 0
-168 166 0
169 167 168 0
-169 -167 0
-169 -168 0
170 -139 169 0
-170 139 0
-170 -169 0
171 115 -170 0
-171 -115 0
-171 170 0
172 -23 31 0
-172 23 0
-172 -31 0
173 -19 172 0
-173 19 0
-173 -172 0
174 -20 -23 0
-174 20 0
-174 23 0
175 33 -174 0
-175 -33 0
-175 174 0
176 13 175 0
-176 -13 0
-176 -175 0
177 -13 -175 0
-177 13 0
-177 175 0
178 176 177 0
-178 -176 0
-178 -177 0
179 7 10 0
-179 -7 0
-179 -10 0
180 -7 -10 0
-180 7 0
-180 10 0
181 179 180 0
-181 -179 0
-181 -180 0
182 -4 153 0
-182 4 0
-182 -153 0
183 4 -153 0
-183 -4 0
-183 153 0
184 182 183 0
-184 -182 0
-184 -183 0
185 -181 -184 0
-185 181 0
-185 184 0
186 181 184 0
-186 -181 0
-186 -184 0
187 185 186 0
-187 -185 0
-187 -186 0
188 -178 187 0
-188 178 0
-188 -187 0
189 178 -187 0
-189 -178 0
-189 187 0
190 188 189 0
-190 -188 0
-190 -189 0
191 31 190 0
-191 -31 0
-191 -190 0
192 -173 191 0
-192 173 0
-192 -191 0
193 173 -191 0
-193 -173 0
-193 191 0
194 192 193 0
-194 -192 0
-194 -193 0
195 -17 24 0
-195 17 0
-195 -24 0
196 33 -195 0
-196 -33 0
-196 195 0
197 1 196 0
-197 -1 0
-197 -196 0
198 -1 -196 0
-198 1 0
-198 196 0
199 197 198 0
-199 -197 0
-199 -198 0
200 15 16 0
-200 -15 0
-200 -16 0
201 -15 -16 0
-201 15 0
-201 16 0
202 200 201 0
-202 -200 0
-202 -201 0
203 -10 -202 0
-203 10 0
-203 202 0
204 10 202 0
-204 -10 0
-204 -202 0
205 203 204 0
-205 -203 0
-205 -204 0
206 12 13 0
-206 -12 0
-206 -13 0
207 -12 -13 0
-207 12 0
-207 13 0
208 206 207 0
-208 -206 0
-208 -207 0
209 -11 -208 0
-209 11 0
-209 208 0
210 11 208 0
-210 -11 0
-210 -208 0
211 209 210 0
-211 -209 0
-211 -210 0
212 205 211 0
-212 -205 0
-212 -211 0
213 -205 -211 0
-213 205 0
-213 211 0
214 212 213 0
-214 -212 0
-214 -213 0
215 -199 214 0
-215 199 0
-215 -214 0
216 199 -214 0
-216 -199 0
-216 214 0
217 215 216 0
-217 -215 0
-217 -216 0
218 -97 -217 0
-218 97 0
-218 217 0
219 97 217 0
-219 -97 0
-219 -217 0
220 218 219 0
-220 -218 0
-220 -219 0
221 31 220 0
-221 -31 0
-221 -220 0
222 -26 221 0
-222 26 0
-222 -221 0
223 26 -221 0
-223 -26 0
-223 221 0
224 222 223 0
-224 -222 0
-224 -223 0
225 -194 224 0
-225 194 0
-225 -224 0
226 -22 33 0
-226 22 0
-226 -33 0
227 -4 14 0
-227 4 0
-227 -14 0
228 4 -14 0
-228 -4 0
-228 14 0
229 227 228 0
-229 -227 0
-229 -228 0
230 -226 -229 0
-230 226 0
-230 229 0
231 226 229 0
-231 -226 0
-231 -229 0
232 230 231 0
-232 -230 0
-232 -231 0
233 91 -214 0
-233 -91 0
-233 214 0
234 -91 214 0
-234 91 0
-234 -214 0
235 233 234 0
-235 -233 0
-235 -234 0
236 -232 -235 0
-236 232 0
-236 235 0
237 232 235 0
-237 -232 0
-237 -235 0
238 236 237 0
-238 -236 0
-238 -237 0
239 31 -238 0
-239 -31 0
-239 238 0
240 -25 239 0
-240 25 0
-240 -239 0
241 25 -239 0
-241 -25 0
-241 239 0
242 240 241 0
-242 -240 0
-242 -241 0
243 -20 172 0
-243 20 0
-243 -172 0
244 24 31 0
-244 -24 0
-244 -31 0
245 -18 244 0
-245 18 0
-245 -244 0
246 -17 244 0
-246 17 0
-246 -244 0
247 -21 33 0
-247 21 0
-247 -33 0
248 -9 205 0
-248 9 0
-248 -205 0
249 9 -205 0
-249 -9 0
-249 205 0
250 248 249 0
-250 -248 0
-250 -249 0
251 -247 -250 0
-251 247 0
-251 250 0
252 247 250 0
-252 -247 0
-252 -250 0
253 251 252 0
-253 -251 0
-253 -252 0
254 -106 -253 0
-254 106 0
-254 253 0
255 106 253 0
-255 -106 0
-255 -253 0
256 254 255 0
-256 -254 0
-256 -255 0
257 31 -256 0
-257 -31 0
-257 256 0
258 246 -257 0
-258 -246 0
-258 257 0
259 -246 257 0
-259 246 0
-259 -257 0
260 258 259 0
-260 -258 0
-260 -259 0
261 245 260 0
-261 -245 0
-261 -260 0
262 -242 243 0
-262 242 0
-262 -243 0
263 -261 -262 0
-263 261 0
-263 262 0
264 -225 -263 0
-264 225 0
-264 263 0
265 -171 -264 0
-265 171 0
-265 264 0
266 139 -169 0
-266 -139 0
-266 169 0
267 115 -266 0
-267 -115 0
-267 266 0
268 -264 -267 0
-268 264 0
-268 267 0
269 194 -224 0
-269 -194 0
-269 224 0
270 -139 -169 0
-270 139 0
-270 169 0
271 115 -270 0
-271 -115 0
-271 270 0
272 242 243 0
-272 -242 0
-272 -243 0
273 -261 -272 0
-273 261 0
-273 272 0
274 -269 -271 0
-274 269 0
-274 271 0
275 -273 -274 0
-275 273 0
-275 274 0
276 194 224 0
-276 -194 0
-276 -224 0
277 -263 -276 0
-277 263 0
-277 276 0
278 -271 -277 0
-278 271 0
-278 277 0
279 -225 -273 0
-279 225 0
-279 273 0
280 -271 -279 0
-280 271 0
-280 279 0
281 -194 -224 0
-281 194 0
-281 224 0
282 -273 -281 0
-282 273 0
-282 281 0
283 -171 -282 0
-283 171 0
-283 282 0
284 -267 -282 0
-284 267 0
-284 282 0
285 139 169 0
-285 -139 0
-285 -169 0
286 115 -281 0
-286 -115 0
-286 281 0
287 -285 -286 0
-287 285 0
-287 286 0
288 -263 -287 0
-288 263 0
-288 287 0
289 265 268 0
-289 -265 0
-289 -268 0
290 275 278 0
-290 -275 0
-290 -278 0
291 280 283 0
-291 -280 0
-291 -283 0
292 284 288 0
-292 -284 0
-292 -288 0
293 -291 -292 0
-293 291 0
-293 292 0
294 -289 -290 0
-294 289 0
-294 290 0
295 -293 -294 0
-295 293 0
-295 294 0
296 33 295 0
-296 -33 0
-296 -295 0
297 109 296 0
-297 -109 0
-297 -296 0
298 -107 297 0
-298 107 0
-298 -297 0
299 107 -297 0
-299 -107 0
-299 297 0
300 298 299 0
-300 -298 0
-300 -299 0
301 57 114 0
-301 -57 0
-301 -114 0
302 -57 -114 0
-302 57 0
-302 114 0
303 301 302 0
-303 -301 0
-303 -302 0
304 112 303 0
-304 -112 0
-304 -303 0
305 -58 304 0
-305 58 0
-305 -304 0
306 58 -304 0
-306 -58 0
-306 304 0
307 305 306 0
-307 -305 0
-307 -306 0
308 50 -116 0
-308 -50 0
-308 116 0
309 50 117 0
-309 -50 0
-309 -117 0
310 116 309 0
-310 -116 0
-310 -309 0
311 308 310 0
-311 -308 0
-311 -310 0
312 3 -311 0
-312 -3 0
-312 311 0
313 52 312 0
-313 -52 0
-313 -312 0
314 -52 -312 0
-314 52 0
-314 312 0
315 313 314 0
-315 -313 0
-315 -314 0
316 -3 311 0
-316 3 0
-316 -311 0
317 51 316 0
-317 -51 0
-317 -316 0
318 -51 -316 0
-318 51 0
-318 316 0
319 317 318 0
-319 -317 0
-319 -318 0
320 315 319 0
-320 -315 0
-320 -319 0
321 -132 -320 0
-321 132 0
-321 320 0
322 132 320 0
-322 -132 0
-322 -320 0
323 321 322 0
-323 -321 0
-323 -322 0
324 31 323 0
-324 -31 0
-324 -323 0
325 -28 324 0
-325 28 0
-325 -324 0
326 28 -324 0
-326 -28 0
-326 324 0
327 325 326 0
-327 -325 0
-327 -326 0
328 -27 55 0
-328 27 0
-328 -55 0
329 56 -328 0
-329 -56 0
-329 328 0
330 -56 328 0
-330 56 0
-330 -328 0
331 329 330 0
-331 -329 0
-331 -330 0
332 43 44 0
-332 -43 0
-332 -44 0
333 -43 -44 0
-333 43 0
-333 44 0
334 332 333 0
-334 -332 0
-334 -333 0
335 162 334 0
-335 -162 0
-335 -334 0
336 -162 -334 0
-336 162 0
-336 334 0
337 335 336 0
-337 -335 0
-337 -336 0
338 -53 145 0
-338 53 0
-338 -145 0
339 53 -145 0
-339 -53 0
-339 145 0
340 338 339 0
-340 -338 0
-340 -339 0
341 -54 -340 0
-341 54 0
-341 340 0
342 337 341 0
-342 -337 0
-342 -341 0
343 54 340 0
-343 -54 0
-343 -340 0
344 342 -343 0
-344 -342 0
-344 343 0
345 -342 343 0
-345 342 0
-345 -343 0
346 344 345 0
-346 -344 0
-346 -345 0
347 31 -346 0
-347 -31 0
-347 346 0
348 27 -55 0
-348 -27 0
-348 55 0
349 347 348 0
-349 -347 0
-349 -348 0
350 -331 -349 0
-350 331 0
-350 349 0
351 331 349 0
-351 -331 0
-351 -349 0
352 350 351 0
-352 -350 0
-352 -351 0
353 327 -352 0
-353 -327 0
-353 352 0
354 42 211 0
-354 -42 0
-354 -211 0
355 -42 209 0
-355 42 0
-355 -209 0
356 354 355 0
-356 -354 0
-356 -355 0
357 -205 356 0
-357 205 0
-357 -356 0
358 205 -356 0
-358 -205 0
-358 356 0
359 357 358 0
-359 -357 0
-359 -358 0
360 -40 359 0
-360 40 0
-360 -359 0
361 40 -359 0
-361 -40 0
-361 359 0
362 360 361 0
-362 -360 0
-362 -361 0
363 -232 -362 0
-363 232 0
-363 362 0
364 232 362 0
-364 -232 0
-364 -362 0
365 363 364 0
-365 -363 0
-365 -364 0
366 35 86 0
-366 -35 0
-366 -86 0
367 87 -366 0
-367 -87 0
-367 366 0
368 -35 -86 0
-368 35 0
-368 86 0
369 367 368 0
-369 -367 0
-369 -368 0
370 -1 369 0
-370 1 0
-370 -369 0
371 1 -369 0
-371 -1 0
-371 369 0
372 370 371 0
-372 -370 0
-372 -371 0
373 -41 -205 0
-373 41 0
-373 205 0
374 -372 -373 0
-374 372 0
-374 373 0
375 41 372 0
-375 -41 0
-375 -372 0
376 374 375 0
-376 -374 0
-376 -375 0
377 -365 376 0
-377 365 0
-377 -376 0
378 365 -376 0
-378 -365 0
-378 376 0
379 377 378 0
-379 -377 0
-379 -378 0
380 31 379 0
-380 -31 0
-380 -379 0
381 -25 380 0
-381 25 0
-381 -380 0
382 25 -380 0
-382 -25 0
-382 380 0
383 381 382 0
-383 -381 0
-383 -382 0
384 39 243 0
-384 -39 0
-384 -243 0
385 -39 -243 0
-385 39 0
-385 243 0
386 384 385 0
-386 -384 0
-386 -385 0
387 -383 386 0
-387 383 0
-387 -386 0
388 -103 -372 0
-388 103 0
-388 372 0
389 103 372 0
-389 -103 0
-389 -372 0
390 388 389 0
-390 -388 0
-390 -389 0
391 -34 390 0
-391 34 0
-391 -390 0
392 34 -390 0
-392 -34 0
-392 390 0
393 391 392 0
-393 -391 0
-393 -392 0
394 -253 -393 0
-394 253 0
-394 393 0
395 253 393 0
-395 -253 0
-395 -393 0
396 394 395 0
-396 -394 0
-396 -395 0
397 31 -396 0
-397 -31 0
-397 396 0
398 36 246 0
-398 -36 0
-398 -246 0
399 -36 -246 0
-399 36 0
-399 246 0
400 398 399 0
-400 -398 0
-400 -399 0
401 -397 400 0
-401 397 0
-401 -400 0
402 38 401 0
-402 -38 0
-402 -401 0
403 -38 -401 0
-403 38 0
-403 401 0
404 402 403 0
-404 -402 0
-404 -403 0
405 397 -400 0
-405 -397 0
-405 400 0
406 37 405 0
-406 -37 0
-406 -405 0
407 -37 -405 0
-407 37 0
-407 405 0
408 406 407 0
-408 -406 0
-408 -407 0
409 404 408 0
-409 -404 0
-409 -408 0
410 245 409 0
-410 -245 0
-410 -409 0
411 -387 -410 0
-411 387 0
-411 410 0
412 46 177 0
-412 -46 0
-412 -177 0
413 -46 -177 0
-413 46 0
-413 177 0
414 412 413 0
-414 -412 0
-414 -413 0
415 -334 414 0
-415 334 0
-415 -414 0
416 334 -414 0
-416 -334 0
-416 414 0
417 415 416 0
-417 -415 0
-417 -416 0
418 45 176 0
-418 -45 0
-418 -176 0
419 187 -418 0
-419 -187 0
-419 418 0
420 -187 418 0
-420 187 0
-420 -418 0
421 419 420 0
-421 -419 0
-421 -420 0
422 -417 -421 0
-422 417 0
-422 421 0
423 417 421 0
-423 -417 0
-423 -421 0
424 422 423 0
-424 -422 0
-424 -423 0
425 31 -424 0
-425 -31 0
-425 424 0
426 -47 -425 0
-426 47 0
-426 425 0
427 -173 426 0
-427 173 0
-427 -426 0
428 47 425 0
-428 -47 0
-428 -425 0
429 427 -428 0
-429 -427 0
-429 428 0
430 -427 428 0
-430 427 0
-430 -428 0
431 429 430 0
-431 -429 0
-431 -430 0
432 -48 -359 0
-432 48 0
-432 359 0
433 48 359 0
-433 -48 0
-433 -359 0
434 432 433 0
-434 -432 0
-434 -433 0
435 -97 -434 0
-435 97 0
-435 434 0
436 97 434 0
-436 -97 0
-436 -434 0
437 435 436 0
-437 -435 0
-437 -436 0
438 -199 437 0
-438 199 0
-438 -437 0
439 199 -437 0
-439 -199 0
-439 437 0
440 31 438 0
-440 -31 0
-440 -438 0
441 439 -440 0
-441 -439 0
-441 440 0
442 26 -49 0
-442 -26 0
-442 49 0
443 441 442 0
-443 -441 0
-443 -442 0
444 -26 49 0
-444 26 0
-444 -49 0
445 443 -444 0
-445 -443 0
-445 444 0
446 -443 444 0
-446 443 0
-446 -444 0
447 445 446 0
-447 -445 0
-447 -446 0
448 431 447 0
-448 -431 0
-448 -447 0
449 -353 -411 0
-449 353 0
-449 411 0
450 -448 -449 0
-450 448 0
-450 449 0
451 -64 450 0
-451 64 0
-451 -450 0
452 64 -450 0
-452 -64 0
-452 450 0
453 451 452 0
-453 -451 0
-453 -452 0
454 -307 453 0
-454 307 0
-454 -453 0
455 327 352 0
-455 -327 0
-455 -352 0
456 431 -447 0
-456 -431 0
-456 447 0
457 -307 -411 0
-457 307 0
-457 411 0
458 -456 -457 0
-458 456 0
-458 457 0
459 -455 -458 0
-459 455 0
-459 458 0
460 -63 459 0
-460 63 0
-460 -459 0
461 63 -459 0
-461 -63 0
-461 459 0
462 460 461 0
-462 -460 0
-462 -461 0
463 -327 352 0
-463 327 0
-463 -352 0
464 -307 -463 0
-464 307 0
-464 463 0
465 -431 447 0
-465 431 0
-465 -447 0
466 383 386 0
-466 -383 0
-466 -386 0
467 -410 -466 0
-467 410 0
-467 466 0
468 -465 -467 0
-468 465 0
-468 467 0
469 -61 -468 0
-469 61 0
-469 468 0
470 61 468 0
-470 -61 0
-470 -468 0
471 -464 469 0
-471 464 0
-471 -469 0
472 470 -471 0
-472 -470 0
-472 471 0
473 -307 -448 0
-473 307 0
-473 448 0
474 -467 -473 0
-474 467 0
-474 473 0
475 -455 -474 0
-475 455 0
-475 474 0
476 -327 -352 0
-476 327 0
-476 352 0
477 -458 -476 0
-477 458 0
-477 476 0
478 -474 -476 0
-478 474 0
-478 476 0
479 -431 -447 0
-479 431 0
-479 447 0
480 -463 -479 0
-480 463 0
-480 479 0
481 -457 -480 0
-481 457 0
-481 480 0
482 -456 -467 0
-482 456 0
-482 467 0
483 -464 -482 0
-483 464 0
-483 482 0
484 481 483 0
-484 -481 0
-484 -483 0
485 475 -484 0
-485 -475 0
-485 484 0
486 477 478 0
-486 -477 0
-486 -478 0
487 -485 -486 0
-487 485 0
-487 486 0
488 472 -487 0
-488 -472 0
-488 487 0
489 454 -462 0
-489 -454 0
-489 462 0
490 -488 -489 0
-490 488 0
-490 489 0
491 33 490 0
-491 -33 0
-491 -490 0
492 85 390 0
-492 -85 0
-492 -390 0
493 491 -492 0
-493 -491 0
-493 492 0
494 -390 -491 0
-494 390 0
-494 491 0
495 493 494 0
-495 -493 0
-495 -494 0
496 79 495 0
-496 -79 0
-496 -495 0
497 80 -496 0
-497 -80 0
-497 496 0
498 -80 496 0
-498 80 0
-498 -496 0
499 497 498 0
-499 -497 0
-499 -498 0
500 -79 -495 0
-500 79 0
-500 495 0
501 109 500 0
-501 -109 0
-501 -500 0
502 -499 -501 0
-502 499 0
-502 501 0
503 499 501 0
-503 -499 0
-503 -501 0
504 502 503 0
-504 -502 0
-504 -503 0
505 -300 504 0
-505 300 0
-505 -504 0
506 32 -33 0
-506 -32 0
-506 33 0
507 30 -33 0
-507 -30 0
-507 33 0
508 -111 -507 0
-508 111 0
-508 507 0
509 114 508 0
-509 -114 0
-509 -508 0
510 -170 509 0
-510 170 0
-510 -509 0
511 245 -260 0
-511 -245 0
-511 260 0
512 -272 -511 0
-512 272 0
-512 511 0
513 -225 -512 0
-513 225 0
-513 512 0
514 -510 -513 0
-514 510 0
-514 513 0
515 -270 509 0
-515 270 0
-515 -509 0
516 -276 -515 0
-516 276 0
-516 515 0
517 -512 -516 0
-517 512 0
-517 516 0
518 -269 -510 0
-518 269 0
-518 510 0
519 -512 -518 0
-519 512 0
-519 518 0
520 -266 509 0
-520 266 0
-520 -509 0
521 -513 -520 0
-521 513 0
-521 520 0
522 -285 509 0
-522 285 0
-522 -509 0
523 -279 -522 0
-523 279 0
-523 522 0
524 -263 -518 0
-524 263 0
-524 518 0
525 -273 -276 0
-525 273 0
-525 276 0
526 -520 -525 0
-526 520 0
-526 525 0
527 -510 -525 0
-527 510 0
-527 525 0
528 514 517 0
-528 -514 0
-528 -517 0
529 519 521 0
-529 -519 0
-529 -521 0
530 523 524 0
-530 -523 0
-530 -524 0
531 526 527 0
-531 -526 0
-531 -527 0
532 -530 -531 0
-532 530 0
-532 531 0
533 -528 -529 0
-533 528 0
-533 529 0
534 -532 -533 0
-534 532 0
-534 533 0
535 -295 -534 0
-535 295 0
-535 534 0
536 -31 535 0
-536 31 0
-536 -535 0
537 -17 -536 0
-537 17 0
-537 536 0
538 -256 -537 0
-538 256 0
-538 537 0
539 256 537 0
-539 -256 0
-539 -537 0
540 506 538 0
-540 -506 0
-540 -538 0
541 539 -540 0
-541 -539 0
-541 540 0
542 -73 541 0
-542 73 0
-542 -541 0
543 73 -541 0
-543 -73 0
-543 541 0
544 542 543 0
-544 -542 0
-544 -543 0
545 72 506 0
-545 -72 0
-545 -506 0
546 -72 -506 0
-546 72 0
-546 506 0
547 545 546 0
-547 -545 0
-547 -546 0
548 303 508 0
-548 -303 0
-548 -508 0
549 -476 548 0
-549 476 0
-549 -548 0
550 -467 -479 0
-550 467 0
-550 479 0
551 -549 -550 0
-551 549 0
-551 550 0
552 245 -409 0
-552 -245 0
-552 409 0
553 -466 -552 0
-553 466 0
-553 552 0
554 -465 -549 0
-554 465 0
-554 549 0
555 -553 -554 0
-555 553 0
-555 554 0
556 -353 548 0
-556 353 0
-556 -548 0
557 -482 -556 0
-557 482 0
-557 556 0
558 -455 548 0
-558 455 0
-558 -548 0
559 -456 -553 0
-559 456 0
-559 553 0
560 -65 559 0
-560 65 0
-560 -559 0
561 65 -559 0
-561 -65 0
-561 559 0
562 560 561 0
-562 -560 0
-562 -561 0
563 -558 562 0
-563 558 0
-563 -562 0
564 -550 -558 0
-564 550 0
-564 558 0
565 -411 -465 0
-565 411 0
-565 465 0
566 -549 -565 0
-566 549 0
-566 565 0
567 -549 562 0
-567 549 0
-567 -562 0
568 564 566 0
-568 -564 0
-568 -566 0
569 563 -568 0
-569 -563 0
-569 568 0
570 567 -569 0
-570 -567 0
-570 569 0
571 -67 570 0
-571 67 0
-571 -570 0
572 67 -570 0
-572 -67 0
-572 570 0
573 571 572 0
-573 -571 0
-573 -572 0
574 -480 -553 0
-574 480 0
-574 553 0
575 -66 -574 0
-575 66 0
-575 574 0
576 66 574 0
-576 -66 0
-576 -574 0
577 548 575 0
-577 -548 0
-577 -575 0
578 576 -577 0
-578 -576 0
-578 577 0
579 551 555 0
-579 -551 0
-579 -555 0
580 557 -579 0
-580 -557 0
-580 579 0
581 578 -580 0
-581 -578 0
-581 580 0
582 573 -581 0
-582 -573 0
-582 581 0
583 -490 -582 0
-583 490 0
-583 582 0
584 -31 -400 0
-584 31 0
-584 400 0
585 583 -584 0
-585 -583 0
-585 584 0
586 -396 585 0
-586 396 0
-586 -585 0
587 396 -585 0
-587 -396 0
-587 585 0
588 586 587 0
-588 -586 0
-588 -587 0
589 547 588 0
-589 -547 0
-589 -588 0
590 -544 -589 0
-590 544 0
-590 589 0
591 -523 557 0
-591 523 0
-591 -557 0
592 10 -62 0
-592 -10 0
-592 62 0
593 564 -592 0
-593 -564 0
-593 592 0
594 62 -564 0
-594 -62 0
-594 564 0
595 593 594 0
-595 -593 0
-595 -594 0
596 -526 595 0
-596 526 0
-596 -595 0
597 526 -595 0
-597 -526 0
-597 595 0
598 596 597 0
-598 -596 0
-598 -597 0
599 278 481 0
-599 -278 0
-599 -481 0
600 -278 -481 0
-600 278 0
-600 481 0
601 599 600 0
-601 -599 0
-601 -600 0
602 -59 483 0
-602 59 0
-602 -483 0
603 59 -483 0
-603 -59 0
-603 483 0
604 602 603 0
-604 -602 0
-604 -603 0
605 -280 -604 0
-605 280 0
-605 604 0
606 280 604 0
-606 -280 0
-606 -604 0
607 268 462 0
-607 -268 0
-607 -462 0
608 -283 478 0
-608 283 0
-608 -478 0
609 265 -477 0
-609 -265 0
-609 477 0
610 -265 477 0
-610 265 0
-610 -477 0
611 524 566 0
-611 -524 0
-611 -566 0
612 -524 -566 0
-612 524 0
-612 566 0
613 611 612 0
-613 -611 0
-613 -612 0
614 3 284 0
-614 -3 0
-614 -284 0
615 -3 -284 0
-615 3 0
-615 284 0
616 614 615 0
-616 -614 0
-616 -615 0
617 3 -60 0
-617 -3 0
-617 60 0
618 475 617 0
-618 -475 0
-618 -617 0
619 -3 60 0
-619 3 0
-619 -60 0
620 618 -619 0
-620 -618 0
-620 619 0
621 -618 619 0
-621 618 0
-621 -619 0
622 620 621 0
-622 -620 0
-622 -621 0
623 -616 622 0
-623 616 0
-623 -622 0
624 616 -622 0
-624 -616 0
-624 622 0
625 288 454 0
-625 -288 0
-625 -454 0
626 -288 -454 0
-626 288 0
-626 454 0
627 625 626 0
-627 -625 0
-627 -626 0
628 521 -563 0
-628 -521 0
-628 563 0
629 -521 563 0
-629 521 0
-629 -563 0
630 514 -567 0
-630 -514 0
-630 567 0
631 -268 -462 0
-631 268 0
-631 462 0
632 -275 472 0
-632 275 0
-632 -472 0
633 -514 567 0
-633 514 0
-633 -567 0
634 275 -472 0
-634 -275 0
-634 472 0
635 283 -478 0
-635 -283 0
-635 478 0
636 -517 578 0
-636 517 0
-636 -578 0
637 -527 551 0
-637 527 0
-637 -551 0
638 527 -551 0
-638 -527 0
-638 551 0
639 519 -555 0
-639 -519 0
-639 555 0
640 517 -578 0
-640 -517 0
-640 578 0
641 -519 555 0
-641 519 0
-641 -555 0
642 523 -557 0
-642 -523 0
-642 557 0
643 -387 -552 0
-643 387 0
-643 552 0
644 -448 -643 0
-644 448 0
-644 643 0
645 -463 -644 0
-645 463 0
-645 644 0
646 411 553 0
-646 -411 0
-646 -553 0
647 -448 646 0
-647 448 0
-647 -646 0
648 -245 448 0
-648 245 0
-648 -448 0
649 245 465 0
-649 -245 0
-649 -465 0
650 -387 -409 0
-650 387 0
-650 409 0
651 648 -650 0
-651 -648 0
-651 650 0
652 649 -651 0
-652 -649 0
-652 651 0
653 -383 -386 0
-653 383 0
-653 386 0
654 -552 -653 0
-654 552 0
-654 653 0
655 69 654 0
-655 -69 0
-655 -654 0
656 -69 -654 0
-656 69 0
-656 654 0
657 -448 655 0
-657 448 0
-657 -655 0
658 656 -657 0
-658 -656 0
-658 657 0
659 -70 658 0
-659 70 0
-659 -658 0
660 70 -658 0
-660 -70 0
-660 658 0
661 647 652 0
-661 -647 0
-661 -652 0
662 659 -661 0
-662 -659 0
-662 661 0
663 660 -662 0
-663 -660 0
-663 662 0
664 -463 663 0
-664 463 0
-664 -663 0
665 353 463 0
-665 -353 0
-665 -463 0
666 -644 -665 0
-666 644 0
-666 665 0
667 664 666 0
-667 -664 0
-667 -666 0
668 -303 667 0
-668 303 0
-668 -667 0
669 -303 -463 0
-669 303 0
-669 463 0
670 -456 -669 0
-670 456 0
-670 669 0
671 -643 -670 0
-671 643 0
-671 670 0
672 68 671 0
-672 -68 0
-672 -671 0
673 -68 -671 0
-673 68 0
-673 671 0
674 672 673 0
-674 -672 0
-674 -673 0
675 668 674 0
-675 -668 0
-675 -674 0
676 -583 -675 0
-676 583 0
-676 675 0
677 -71 676 0
-677 71 0
-677 -676 0
678 71 -676 0
-678 -71 0
-678 676 0
679 -32 677 0
-679 32 0
-679 -677 0
680 678 -679 0
-680 -678 0
-680 679 0
681 33 645 0
-681 -33 0
-681 -645 0
682 680 -681 0
-682 -680 0
-682 681 0
683 -242 -260 0
-683 242 0
-683 260 0
684 243 245 0
-684 -243 0
-684 -245 0
685 -683 -684 0
-685 683 0
-685 684 0
686 -270 -281 0
-686 270 0
-686 281 0
687 -685 -686 0
-687 685 0
-687 686 0
688 263 512 0
-688 -263 0
-688 -512 0
689 -270 688 0
-689 270 0
-689 -688 0
690 -243 -245 0
-690 243 0
-690 245 0
691 684 690 0
-691 -684 0
-691 -690 0
692 -270 -691 0
-692 270 0
-692 691 0
693 270 -684 0
-693 -270 0
-693 684 0
694 285 -693 0
-694 -285 0
-694 693 0
695 692 694 0
-695 -692 0
-695 -694 0
696 -683 695 0
-696 683 0
-696 -695 0
697 689 696 0
-697 -689 0
-697 -696 0
698 -281 697 0
-698 281 0
-698 -697 0
699 -270 276 0
-699 270 0
-699 -276 0
700 281 -699 0
-700 -281 0
-700 699 0
701 -685 -700 0
-701 685 0
-701 700 0
702 698 701 0
-702 -698 0
-702 -701 0
703 110 702 0
-703 -110 0
-703 -702 0
704 -535 703 0
-704 535 0
-704 -703 0
705 -32 704 0
-705 32 0
-705 -704 0
706 33 687 0
-706 -33 0
-706 -687 0
707 705 -706 0
-707 -705 0
-707 706 0
708 682 707 0
-708 -682 0
-708 -707 0
709 -682 -707 0
-709 682 0
-709 707 0
710 708 709 0
-710 -708 0
-710 -709 0
711 544 589 0
-711 -544 0
-711 -589 0
712 -28 -31 0
-712 28 0
-712 31 0
713 583 -712 0
-713 -583 0
-713 712 0
714 323 713 0
-714 -323 0
-714 -713 0
715 -323 -713 0
-715 323 0
-715 713 0
716 714 715 0
-716 -714 0
-716 -715 0
717 547 716 0
-717 -547 0
-717 -716 0
718 -28 -536 0
-718 28 0
-718 536 0
719 135 -718 0
-719 -135 0
-719 718 0
720 -135 718 0
-720 135 0
-720 -718 0
721 506 719 0
-721 -506 0
-721 -719 0
722 720 -721 0
-722 -720 0
-722 721 0
723 717 722 0
-723 -717 0
-723 -722 0
724 -717 -722 0
-724 717 0
-724 722 0
725 723 724 0
-725 -723 0
-725 -724 0
726 300 -504 0
-726 -300 0
-726 504 0
727 33 582 0
-727 -33 0
-727 -582 0
728 -43 434 0
-728 43 0
-728 -434 0
729 43 -434 0
-729 -43 0
-729 434 0
730 728 729 0
-730 -728 0
-730 -729 0
731 -150 -730 0
-731 150 0
-731 730 0
732 150 730 0
-732 -150 0
-732 -730 0
733 731 732 0
-733 -731 0
-733 -732 0
734 -727 -733 0
-734 727 0
-734 733 0
735 507 733 0
-735 -507 0
-735 -733 0
736 727 -735 0
-736 -727 0
-736 735 0
737 81 -736 0
-737 -81 0
-737 736 0
738 -81 736 0
-738 81 0
-738 -736 0
739 734 737 0
-739 -734 0
-739 -737 0
740 738 -739 0
-740 -738 0
-740 739 0
741 33 534 0
-741 -33 0
-741 -534 0
742 -150 214 0
-742 150 0
-742 -214 0
743 150 -214 0
-743 -150 0
-743 214 0
744 742 743 0
-744 -742 0
-744 -743 0
745 507 -744 0
-745 -507 0
-745 744 0
746 741 -745 0
-746 -741 0
-746 745 0
747 -741 744 0
-747 741 0
-747 -744 0
748 746 747 0
-748 -746 0
-748 -747 0
749 -740 748 0
-749 740 0
-749 -748 0
750 740 -748 0
-750 -740 0
-750 748 0
751 -27 -31 0
-751 27 0
-751 31 0
752 583 -751 0
-752 -583 0
-752 751 0
753 346 -752 0
-753 -346 0
-753 752 0
754 -346 752 0
-754 346 0
-754 -752 0
755 753 754 0
-755 -753 0
-755 -754 0
756 547 755 0
-756 -547 0
-756 -755 0
757 -76 756 0
-757 76 0
-757 -756 0
758 76 -756 0
-758 -76 0
-758 756 0
759 757 758 0
-759 -757 0
-759 -758 0
760 535 -751 0
-760 -535 0
-760 751 0
761 -165 -760 0
-761 165 0
-761 760 0
762 165 760 0
-762 -165 0
-762 -760 0
763 506 761 0
-763 -506 0
-763 -761 0
764 762 -763 0
-764 -762 0
-764 763 0
765 -759 -764 0
-765 759 0
-765 764 0
766 759 764 0
-766 -759 0
-766 -764 0
767 -25 -31 0
-767 25 0
-767 31 0
768 583 -767 0
-768 -583 0
-768 767 0
769 -74 -379 0
-769 74 0
-769 379 0
770 74 379 0
-770 -74 0
-770 -379 0
771 769 770 0
-771 -769 0
-771 -770 0
772 768 -771 0
-772 -768 0
-772 771 0
773 -768 771 0
-773 768 0
-773 -771 0
774 547 772 0
-774 -547 0
-774 -772 0
775 773 -774 0
-775 -773 0
-775 774 0
776 -25 -536 0
-776 25 0
-776 536 0
777 238 776 0
-777 -238 0
-777 -776 0
778 -238 -776 0
-778 238 0
-778 776 0
779 506 777 0
-779 -506 0
-779 -777 0
780 778 -779 0
-780 -778 0
-780 779 0
781 -75 780 0
-781 75 0
-781 -780 0
782 75 -780 0
-782 -75 0
-782 780 0
783 781 782 0
-783 -781 0
-783 -782 0
784 -775 783 0
-784 775 0
-784 -783 0
785 775 -783 0
-785 -775 0
-785 783 0
786 784 785 0
-786 -784 0
-786 -785 0
787 78 424 0
-787 -78 0
-787 -424 0
788 -31 -173 0
-788 31 0
-788 173 0
789 583 -788 0
-789 -583 0
-789 788 0
790 77 789 0
-790 -77 0
-790 -789 0
791 -77 -789 0
-791 77 0
-791 789 0
792 790 791 0
-792 -790 0
-792 -791 0
793 -787 792 0
-793 787 0
-793 -792 0
794 -78 -424 0
-794 78 0
-794 424 0
795 787 794 0
-795 -787 0
-795 -794 0
796 -792 -795 0
-796 792 0
-796 795 0
797 547 793 0
-797 -547 0
-797 -793 0
798 796 -797 0
-798 -796 0
-798 797 0
799 -173 -536 0
-799 173 0
-799 536 0
800 190 -799 0
-800 -190 0
-800 799 0
801 -190 799 0
-801 190 0
-801 -799 0
802 506 800 0
-802 -506 0
-802 -800 0
803 801 -802 0
-803 -801 0
-803 802 0
804 798 803 0
-804 -798 0
-804 -803 0
805 -798 -803 0
-805 798 0
-805 803 0
806 804 805 0
-806 -804 0
-806 -805 0
807 -26 -31 0
-807 26 0
-807 31 0
808 583 -807 0
-808 -583 0
-808 807 0
809 -82 437 0
-809 82 0
-809 -437 0
810 82 -437 0
-810 -82 0
-810 437 0
811 809 810 0
-811 -809 0
-811 -810 0
812 -808 -811 0
-812 808 0
-812 811 0
813 808 811 0
-813 -808 0
-813 -811 0
814 812 813 0
-814 -812 0
-814 -813 0
815 83 814 0
-815 -83 0
-815 -814 0
816 199 -815 0
-816 -199 0
-816 815 0
817 -83 -814 0
-817 83 0
-817 814 0
818 -199 815 0
-818 199 0
-818 -815 0
819 817 -818 0
-819 -817 0
-819 818 0
820 547 816 0
-820 -547 0
-820 -816 0
821 819 -820 0
-821 -819 0
-821 820 0
822 -26 -536 0
-822 26 0
-822 536 0
823 220 -822 0
-823 -220 0
-823 822 0
824 -220 822 0
-824 220 0
-824 -822 0
825 506 823 0
-825 -506 0
-825 -823 0
826 824 -825 0
-826 -824 0
-826 825 0
827 -821 826 0
-827 821 0
-827 -826 0
828 821 -826 0
-828 -821 0
-828 826 0
829 591 637 0
-829 -591 0
-829 -637 0
830 638 639 0
-830 -638 0
-830 -639 0
831 641 642 0
-831 -641 0
-831 -642 0
832 -830 -831 0
-832 830 0
-832 831 0
833 601 -829 0
-833 -601 0
-833 829 0
834 608 609 0
-834 -608 0
-834 -609 0
835 610 613 0
-835 -610 0
-835 -613 0
836 635 -835 0
-836 -635 0
-836 835 0
837 -833 -834 0
-837 833 0
-837 834 0
838 605 -832 0
-838 -605 0
-838 832 0
839 606 628 0
-839 -606 0
-839 -628 0
840 629 630 0
-840 -629 0
-840 -630 0
841 632 633 0
-841 -632 0
-841 -633 0
842 634 -841 0
-842 -634 0
-842 841 0
843 -839 -840 0
-843 839 0
-843 840 0
844 -837 -838 0
-844 837 0
-844 838 0
845 598 -836 0
-845 -598 0
-845 836 0
846 607 631 0
-846 -607 0
-846 -631 0
847 636 640 0
-847 -636 0
-847 -640 0
848 -846 -847 0
-848 846 0
-848 847 0
849 -844 -845 0
-849 844 0
-849 845 0
850 -842 -843 0
-850 842 0
-850 843 0
851 623 624 0
-851 -623 0
-851 -624 0
852 627 -851 0
-852 -627 0
-852 851 0
853 -849 -850 0
-853 849 0
-853 850 0
854 -848 -853 0
-854 848 0
-854 853 0
855 -852 -854 0
-855 852 0
-855 854 0
856 590 -855 0
-856 -590 0
-856 855 0
857 711 749 0
-857 -711 0
-857 -749 0
858 750 -857 0
-858 -750 0
-858 857 0
859 505 -856 0
-859 -505 0
-859 856 0
860 725 726 0
-860 -725 0
-860 -726 0
861 786 -860 0
-861 -786 0
-861 860 0
862 -858 -859 0
-862 858 0
-862 859 0
863 710 765 0
-863 -710 0
-863 -765 0
864 766 -863 0
-864 -766 0
-864 863 0
865 -861 -862 0
-865 861 0
-865 862 0
866 806 827 0
-866 -806 0
-866 -827 0
867 828 -866 0
-867 -828 0
-867 866 0
868 -864 -865 0
-868 864 0
-868 865 0
869 -867 -868 0
-869 867 0
-869 868 0
84 869 0
-84 -869 0
84 0
w 1 0.500000
w 2 0.500000
w 3 0.500000
w 4 0.500000
w 5 0.500000
w 6 0.500000
w 7 0.500000
w 8 0.500000
w 9 0.500000
w 10 0.500000
w 11 0.500000
w 12 0.500000
w 13 0.500000
w 14 0.500000
w 15 0.500000
w 16 0.500000
w 17 0.500000
w 18 0.500000
w 19 0.500000
w 20 0.500000
w 21 0.500000
w 22 0.500000
w 23 0.500000
w 24 0.500000
w 25 0.500000
w 26 0.500000
w 27 0.500000
w 28 0.500000
w 29 0.500000
w 30 0.500000
w 31 0.500000
w 32 0.500000
w 33 0.500000
w 34 0.125000
w 35 0.125000
w 36 0.125000
w 37 0.125000
w 38 0.125000
w 39 0.125000
w 40 0.125000
w 41 0.125000
w 42 0.125000
w 43 0.125000
w 44 0.125000
w 45 0.125000
w 46 0.125000
w 47 0.125000
w 48 0.125000
w 49 0.125000
w 50 0.125000
w 51 0.125000
w 52 0.125000
w 53 0.125000
w 54 0.125000
w 55 0.125000
w 56 0.125000
w 57 0.125000
w 58 0.125000
w 59 0.125000
w 60 0.125000
w 61 0.125000
w 62 0.125000
w 63 0.125000
w 64 0.125000
w 65 0.125000
w 66 0.125000
w 67 0.125000
w 68 0.125000
w 69 0.125000
w 70 0.125000
w 71 0.125000
w 72 0.125000
w 73 0.125000
w 74 0.125000
w 75 0.125000
w 76 0.125000
w 77 0.125000
w 78 0.125000
w 79 0.125000
w 80 0.125000
w 81 0.125000
w 82 0.125000
w 83 0.125000
w 85 -1
w 86 -1
w 87 -1
w 88 -1
w 89 -1
w 90 -1
w 91 -1
w 92 -1
w 93 -1
w 94 -1
w 95 -1
w 96 -1
w 97 -1
w 98 -1
w 99 -1
w 100 -1
w 101 -1
w 102 -1
w 103 -1
w 104 -1
w 105 -1
w 106 -1
w 107 -1
w 108 -1
w 109 -1
w 110 -1
w 111 -1
w 112 -1
w 113 -1
w 114 -1
w 115 -1
w 116 -1
w 117 -1
w 118 -1
w 119 -1
w 120 -1
w 121 -1
w 122 -1
w 123 -1
w 124 -1
w 125 -1
w 126 -1
w 127 -1
w 128 -1
w 129 -1
w 130 -1
w 131 -1
w 132 -1
w 133 -1
w 134 -1
w 135 -1
w 136 -1
w 137 -1
w 138 -1
w 139 -1
w 140 -1
w 141 -1
w 142 -1
w 143 -1
w 144 -1
w 145 -1
w 146 -1
w 147 -1
w 148 -1
w 149 -1
w 150 -1
w 151 -1
w 152 -1
w 153 -1
w 154 -1
w 155 -1
w 156 -1
w 157 -1
w 158 -1
w 159 -1
w 160 -1
w 161 -1
w 162 -1
w 163 -1
w 164 -1
w 165 -1
w 166 -1
w 167 -1
w 168 -1
w 169 -1
w 170 -1
w 171 -1
w 172 -1
w 173 -1
w 174 -1
w 175 -1
w 176 -1
w 177 -1
w 178 -1
w 179 -1
w 180 -1
w 181 -1
w 182 -1
w 183 -1
w 184 -1
w 185 -1
w 186 -1
w 187 -1
w 188 -1
w 189 -1
w 190 -1
w 191 -1
w 192 -1
w 193 -1
w 194 -1
w 195 -1
w 196 -1
w 197 -1
w 198 -1
w 199 -1
w 200 -1
w 201 -1
w 202 -1
w 203 -1
w 204 -1
w 205 -1
w 206 -1
w 207 -1
w 208 -1
w 209 -1
w 210 -1
w 211 -1
w 212 -1
w 213 -1
w 214 -1
w 215 -1
w 216 -1
w 217 -1
w 218 -1
w 219 -1
w 220 -1
w 221 -1
w 222 -1
w 223 -1
w 224 -1
w 225 -1
w 226 -1
w 227 -1
w 228 -1
w 229 -1
w 230 -1
w 231 -1
w 232 -1
w 233 -1
w 234 -1
w 235 -1
w 236 -1
w 237 -1
w 238 -1
w 239 -1
w 240 -1
w 241 -1
w 242 -1
w 243 -1
w 244 -1
w 245 -1
w 246 -1
w 247 -1
w 248 -1
w 249 -1
w 250 -1
w 251 -1
w 252 -1
w 253 -1
w 254 -1
w 255 -1
w 256 -1
w 257 -1
w 258 -1
w 259 -1
w 260 -1
w 261 -1
w 262 -1
w 263 -1
w 264 -1
w 265 -1
w 266 -1
w 267 -1
w 268 -1
w 269 -1
w 270 -1
w 271 -1
w 272 -1
w 273 -1
w 274 -1
w 275 -1
w 276 -1
w 277 -1
w 278 -1
w 279 -1
w 280 -1
w 281 -1
w 282 -1
w 283 -1
w 284 -1
w 285 -1
w 286 -1
w 287 -1
w 288 -1
w 289 -1
w 290 -1
w 291 -1
w 292 -1
w 293 -1
w 294 -1
w 295 -1
w 296 -1
w 297 -1
w 298 -1
w 299 -1
w 300 -1
w 301 -1
w 302 -1
w 303 -1
w 304 -1
w 305 -1
w 306 -1
w 307 -1
w 308 -1
w 309 -1
w 310 -1
w 311 -1
w 312 -1
w 313 -1
w 314 -1
w 315 -1
w 316 -1
w 317 -1
w 318 -1
w 319 -1
w 320 -1
w 321 -1
w 322 -1
w 323 -1
w 324 -1
w 325 -1
w 326 -1
w 327 -1
w 328 -1
w 329 -1
w 330 -1
w 331 -1
w 332 -1
w 333 -1
w 334 -1
w 335 -1
w 336 -1
w 337 -1
w 338 -1
w 339 -1
w 340 -1
w 341 -1
w 342 -1
w 343 -1
w 344 -1
w 345 -1
w 346 -1
w 347 -1
w 348 -1
w 349 -1
w 350 -1
w 351 -1
w 352 -1
w 353 -1
w 354 -1
w 355 -1
w 356 -1
w 357 -1
w 358 -1
w 359 -1
w 360 -1
w 361 -1
w 362 -1
w 363 -1
w 364 -1
w 365 -1
w 366 -1
w 367 -1
w 368 -1
w 369 -1
w 370 -1
w 371 -1
w 372 -1
w 373 -1
w 374 -1
w 375 -1
w 376 -1
w 377 -1
w 378 -1
w 379 -1
w 380 -1
w 381 -1
w 382 -1
w 383 -1
w 384 -1
w 385 -1
w 386 -1
w 387 -1
w 388 -1
w 389 -1
w 390 -1
w 391 -1
w 392 -1
w 393 -1
w 394 -1
w 395 -1
w 396 -1
w 397 -1
w 398 -1
w 399 -1
w 400 -1
w 401 -1
w 402 -1
w 403 -1
w 404 -1
w 405 -1
w 406 -1
w 407 -1
w 408 -1
w 409 -1
w 410 -1
w 411 -1
w 412 -1
w 413 -1
w 414 -1
w 415 -1
w 416 -1
w 417 -1
w 418 -1
w 419 -1
w 420 -1
w 421 -1
w 422 -1
w 423 -1
w 424 -1
w 425 -1
w 426 -1
w 427 -1
w 428 -1
w 429 -1
w 430 -1
w 431 -1
w 432 -1
w 433 -1
w 434 -1
w 435 -1
w 436 -1
w 437 -1
w 438 -1
w 439 -1
w 440 -1
w 441 -1
w 442 -1
w 443 -1
w 444 -1
w 445 -1
w 446 -1
w 447 -1
w 448 -1
w 449 -1
w 450 -1
w 451 -1
w 452 -1
w 453 -1
w 454 -1
w 455 -1
w 456 -1
w 457 -1
w 458 -1
w 459 -1
w 460 -1
w 461 -1
w 462 -1
w 463 -1
w 464 -1
w 465 -1
w 466 -1
w 467 -1
w 468 -1
w 469 -1
w 470 -1
w 471 -1
w 472 -1
w 473 -1
w 474 -1
w 475 -1
w 476 -1
w 477 -1
w 478 -1
w 479 -1
w 480 -1
w 481 -1
w 482 -1
w 483 -1
w 484 -1
w 485 -1
w 486 -1
w 487 -1
w 488 -1
w 489 -1
w 490 -1
w 491 -1
w 492 -1
w 493 -1
w 494 -1
w 495 -1
w 496 -1
w 497 -1
w 498 -1
w 499 -1
w 500 -1
w 501 -1
w 502 -1
w 503 -1
w 504 -1
w 505 -1
w 506 -1
w 507 -1
w 508 -1
w 509 -1
w 510 -1
w 511 -1
w 512 -1
w 513 -1
w 514 -1
w 515 -1
w 516 -1
w 517 -1
w 518 -1
w 519 -1
w 520 -1
w 521 -1
w 522 -1
w 523 -1
w 524 -1
w 525 -1
w 526 -1
w 527 -1
w 528 -1
w 529 -1
w 530 -1
w 531 -1
w 532 -1
w 533 -1
w 534 -1
w 535 -1
w 536 -1
w 537 -1
w 538 -1
w 539 -1
w 540 -1
w 541 -1
w 542 -1
w 543 -1
w 544 -1
w 545 -1
w 546 -1
w 547 -1
w 548 -1
w 549 -1
w 550 -1
w 551 -1
w 552 -1
w 553 -1
w 554 -1
w 555 -1
w 556 -1
w 557 -1
w 558 -1
w 559 -1
w 560 -1
w 561 -1
w 562 -1
w 563 -1
w 564 -1
w 565 -1
w 566 -1
w 567 -1
w 568 -1
w 569 -1
w 570 -1
w 571 -1
w 572 -1
w 573 -1
w 574 -1
w 575 -1
w 576 -1
w 577 -1
w 578 -1
w 579 -1
w 580 -1
w 581 -1
w 582 -1
w 583 -1
w 584 -1
w 585 -1
w 586 -1
w 587 -1
w 588 -1
w 589 -1
w 590 -1
w 591 -1
w 592 -1
w 593 -1
w 594 -1
w 595 -1
w 596 -1
w 597 -1
w 598 -1
w 599 -1
w 600 -1
w 601 -1
w 602 -1
w 603 -1
w 604 -1
w 605 -1
w 606 -1
w 607 -1
w 608 -1
w 609 -1
w 610 -1
w 611 -1
w 612 -1
w 613 -1
w 614 -1
w 615 -1
w 616 -1
w 617 -1
w 618 -1
w 619 -1
w 620 -1
w 621 -1
w 622 -1
w 623 -1
w 624 -1
w 625 -1
w 626 -1
w 627 -1
w 628 -1
w 629 -1
w 630 -1
w 631 -1
w 632 -1
w 633 -1
w 634 -1
w 635 -1
w 636 -1
w 637 -1
w 638 -1
w 639 -1
w 640 -1
w 641 -1
w 642 -1
w 643 -1
w 644 -1
w 645 -1
w 646 -1
w 647 -1
w 648 -1
w 649 -1
w 650 -1
w 651 -1
w 652 -1
w 653 -1
w 654 -1
w 655 -1
w 656 -1
w 657 -1
w 658 -1
w 659 -1
w 660 -1
w 661 -1
w 662 -1
w 663 -1
w 664 -1
w 665 -1
w 666 -1
w 667 -1
w 668 -1
w 669 -1
w 670 -1
w 671 -1
w 672 -1
w 673 -1
w 674 -1
w 675 -1
w 676 -1
w 677 -1
w 678 -1
w 679 -1
w 680 -1
w 681 -1
w 682 -1
w 683 -1
w 684 -1
w 685 -1
w 686 -1
w 687 -1
w 688 -1
w 689 -1
w 690 -1
w 691 -1
w 692 -1
w 693 -1
w 694 -1
w 695 -1
w 696 -1
w 697 -1
w 698 -1
w 699 -1
w 700 -1
w 701 -1
w 702 -1
w 703 -1
w 704 -1
w 705 -1
w 706 -1
w 707 -1
w 708 -1
w 709 -1
w 710 -1
w 711 -1
w 712 -1
w 713 -1
w 714 -1
w 715 -1
w 716 -1
w 717 -1
w 718 -1
w 719 -1
w 720 -1
w 721 -1
w 722 -1
w 723 -1
w 724 -1
w 725 -1
w 726 -1
w 727 -1
w 728 -1
w 729 -1
w 730 -1
w 731 -1
w 732 -1
w 733 -1
w 734 -1
w 735 -1
w 736 -1
w 737 -1
w 738 -1
w 739 -1
w 740 -1
w 741 -1
w 742 -1
w 743 -1
w 744 -1
w 745 -1
w 746 -1
w 747 -1
w 748 -1
w 749 -1
w 750 -1
w 751 -1
w 752 -1
w 753 -1
w 754 -1
w 755 -1
w 756 -1
w 757 -1
w 758 -1
w 759 -1
w 760 -1
w 761 -1
w 762 -1
w 763 -1
w 764 -1
w 765 -1
w 766 -1
w 767 -1
w 768 -1
w 769 -1
w 770 -1
w 771 -1
w 772 -1
w 773 -1
w 774 -1
w 775 -1
w 776 -1
w 777 -1
w 778 -1
w 779 -1
w 780 -1
w 781 -1
w 782 -1
w 783 -1
w 784 -1
w 785 -1
w 786 -1
w 787 -1
w 788 -1
w 789 -1
w 790 -1
w 791 -1
w 792 -1
w 793 -1
w 794 -1
w 795 -1
w 796 -1
w 797 -1
w 798 -1
w 799 -1
w 800 -1
w 801 -1
w 802 -1
w 803 -1
w 804 -1
w 805 -1
w 806 -1
w 807 -1
w 808 -1
w 809 -1
w 810 -1
w 811 -1
w 812 -1
w 813 -1
w 814 -1
w 815 -1
w 816 -1
w 817 -1
w 818 -1
w 819 -1
w 820 -1
w 821 -1
w 822 -1
w 823 -1
w 824 -1
w 825 -1
w 826 -1
w 827 -1
w 828 -1
w 829 -1
w 830 -1
w 831 -1
w 832 -1
w 833 -1
w 834 -1
w 835 -1
w 836 -1
w 837 -1
w 838 -1
w 839 -1
w 840 -1
w 841 -1
w 842 -1
w 843 -1
w 844 -1
w 845 -1
w 846 -1
w 847 -1
w 848 -1
w 849 -1
w 850 -1
w 851 -1
w 852 -1
w 853 -1
w 854 -1
w 855 -1
w 856 -1
w 857 -1
w 858 -1
w 859 -1
w 860 -1
w 861 -1
w 862 -1
w 863 -1
w 864 -1
w 865 -1
w 866 -1
w 867 -1
w 868 -1
w 869 -1
w 84 -1
